db/inputs/6798319843174320189918714222238119584.smt2
(set-logic QF_FP)
(declare-const x0 (_ FloatingPoint 11 53))
(declare-const x1 (_ FloatingPoint 11 53))
(declare-const x2 (_ FloatingPoint 11 53))
(declare-const x3 (_ FloatingPoint 11 53))
(declare-const x4 (_ FloatingPoint 11 53))
(declare-const x5 (_ FloatingPoint 11 53))
(declare-const x6 (_ FloatingPoint 11 53))
(declare-const x7 (_ FloatingPoint 11 53))
(declare-const x8 (_ FloatingPoint 11 53))
(declare-const x9 (_ FloatingPoint 11 53))
(declare-const x10 (_ FloatingPoint 11 53))
(declare-const x11 (_ FloatingPoint 11 53))
(declare-const x12 (_ FloatingPoint 11 53))
(declare-const x13 (_ FloatingPoint 11 53))
(declare-const x14 (_ FloatingPoint 11 53))
(declare-const x15 (_ FloatingPoint 11 53))
(declare-const x16 (_ FloatingPoint 11 53))
(declare-const x17 (_ FloatingPoint 11 53))
(declare-const x18 (_ FloatingPoint 11 53))
(declare-const x19 (_ FloatingPoint 11 53))
(declare-const x20 (_ FloatingPoint 11 53))
(declare-const x21 (_ FloatingPoint 11 53))
(declare-const x22 (_ FloatingPoint 11 53))
(declare-const x23 (_ FloatingPoint 11 53))
(declare-const x24 (_ FloatingPoint 11 53))
(assert (fp.geq (fp.div RNE (fp.neg x1) (fp.mul RNE x22 x1)) (fp.div RNE (fp.neg x5) (fp.neg x15))))
(assert (fp.gt (fp.sub RNE (fp.div RNE x3 x18) (fp.sub RNE x13 x5)) (fp.neg (fp.neg x21))))
(assert (fp.geq (fp.add RNE (fp.neg x17) (fp.sub RNE x6 x24)) (fp.neg (fp.div RNE x14 x10))))
(assert (fp.eq (fp.div RNE (fp.sub RNE x2 x19) (fp.add RNE x22 x17)) (fp.mul RNE (fp.add RNE x1 x9) (fp.add RNE x9 x4))))
(assert (fp.geq (fp.sub RNE (fp.div RNE x7 x5) (fp.sub RNE x19 x13)) (fp.sub RNE (fp.sub RNE x1 x0) (fp.neg x6))))
(assert (fp.eq (fp.add RNE (fp.neg x15) (fp.mul RNE x7 x22)) (fp.sub RNE (fp.sub RNE x17 x23) (fp.neg x24))))
(assert (fp.gt (fp.sub RNE (fp.div RNE x7 x1) (fp.sub RNE x10 x7)) (fp.add RNE (fp.add RNE x6 x16) (fp.sub RNE x19 x11))))
(assert (fp.geq (fp.div RNE (fp.mul RNE x20 x17) (fp.neg x2)) (fp.mul RNE (fp.div RNE x19 x14) (fp.mul RNE x18 x19))))
(check-sat)
