db/data/6798319843174320189918714222238119584.z3.out
-------------------
2500.191220557
